NAME: random_points
TYPE: TSP
DIMENSION: 40
EDGE_WEIGHT_TYPE: EUC_2D
NODE_COORD_SECTION
1 45 28
2 73 59
3 29 32
4 11 60
5 61 27
6 51 94
7 90 23
8 19 32
9 5 71
10 53 44
11 6 28
12 59 69
13 94 95
14 16 91
15 4 90
16 25 12
17 20 89
18 64 86
19 25 96
20 98 94
21 22 65
22 34 21
23 42 33
24 0 67
25 91 20
26 63 97
27 97 42
28 90 67
29 62 99
30 12 77
31 32 9
32 54 84
33 33 9
34 47 32
35 12 75
36 6 70
37 72 95
38 13 70
39 5 39
40 7 25
EOF
